Clp0006I 0  Obj 0 Primal inf 999.9999 (1000) Dual inf 6882843 (250000)
Clp0006I 200  Obj -4180557 Primal inf 304440 (1000)
Clp0006I 400  Obj -1433703 Primal inf 109179 (1000)
Clp0006I 600  Obj -25000 Primal inf 12515 (995)
Clp0006I 676  Obj -25000 Primal inf 22184 (995)
Clp0006I 752  Obj -25000 Primal inf 43095 (994)
Clp0006I 840  Obj -25000 Primal inf 45523 (990)
Clp0006I 933  Obj -25000 Primal inf 37569 (989)
Clp0006I 1035  Obj -25000 Primal inf 44058 (990)
Clp0006I 1136  Obj -25000 Primal inf 35245 (988)
Clp0006I 1243  Obj -25000 Primal inf 33776 (984)
Clp0006I 1356  Obj -25000 Primal inf 29078 (984)
Clp0006I 1466  Obj -25000 Primal inf 43261 (985)
Clp0006I 1577  Obj -25000 Primal inf 42566 (981)
Clp0006I 1683  Obj -25000 Primal inf 35107 (979)
Clp0006I 1788  Obj -25000 Primal inf 35502 (977)
Clp0006I 1896  Obj -25000 Primal inf 28075 (979)
Clp0006I 2002  Obj -25000 Primal inf 20867 (977)
Clp0006I 2119  Obj -25000 Primal inf 29792 (977)
Clp0006I 2232  Obj -25000 Primal inf 33783 (975)
Clp0006I 2340  Obj -25000 Primal inf 42560 (976)
Clp0006I 2446  Obj -25000 Primal inf 25850 (972)
Clp0006I 2563  Obj -25000 Primal inf 61990 (971)
Clp0006I 2668  Obj -25000 Primal inf 35123 (974)
Clp0006I 2783  Obj -25000 Primal inf 36833 (973)
Clp0006I 2889  Obj -25000 Primal inf 44497 (975)
Clp0006I 3006  Obj -25000 Primal inf 30606 (976)
Clp0006I 3109  Obj -25000 Primal inf 44755 (974)
Clp0006I 3214  Obj -25000 Primal inf 30514 (970)
Clp0006I 3337  Obj -25000 Primal inf 40766 (966)
Clp0006I 3448  Obj -25000 Primal inf 31646 (965)
Clp0006I 3563  Obj -25000 Primal inf 30243 (969)
Clp0006I 3663  Obj -25000 Primal inf 33314 (959)
Clp0006I 3761  Obj -25000 Primal inf 31849 (958)
Clp0006I 3855  Obj -25000 Primal inf 33986 (955)
Clp0006I 3958  Obj -25000 Primal inf 34050 (957)
Clp0006I 4063  Obj -25000 Primal inf 43506 (955)
Clp0006I 4165  Obj -25000 Primal inf 33606 (945)
Clp0006I 4276  Obj -25000 Primal inf 43951 (943)
Clp0006I 4376  Obj -25000 Primal inf 48027 (941)
Clp0006I 4472  Obj -25000 Primal inf 29744 (937)
Clp0006I 4563  Obj -25000 Primal inf 36365 (938)
Clp0006I 4659  Obj -25000 Primal inf 42059 (932)
Clp0006I 4771  Obj -25000 Primal inf 49690 (931)
Clp0006I 4876  Obj -25000 Primal inf 47877 (930)
Clp0006I 4983  Obj -25000 Primal inf 44493 (930)
Clp0006I 5085  Obj -25000 Primal inf 32967 (920)
Clp0006I 5185  Obj -25000 Primal inf 44773 (920)
Clp0006I 5282  Obj -25000 Primal inf 39635 (914)
Clp0006I 5377  Obj -25000 Primal inf 32362 (909)
Clp0006I 5474  Obj -25000 Primal inf 44885 (909)
Clp0006I 5568  Obj -25000 Primal inf 34024 (905)
Clp0006I 5674  Obj -25000 Primal inf 20742 (904)
Clp0006I 5780  Obj -25000 Primal inf 19735 (903)
Clp0006I 5887  Obj -25000 Primal inf 17135 (893)
Clp0006I 5999  Obj -25000 Primal inf 20510 (898)
Clp0006I 6102  Obj -25000 Primal inf 19654 (892)
Clp0006I 6204  Obj -25000 Primal inf 17194 (885)
Clp0006I 6312  Obj -25000 Primal inf 18710 (886)
Clp0006I 6408  Obj -25000 Primal inf 17599 (878)
Clp0006I 6514  Obj -25000 Primal inf 19235 (876)
Clp0006I 6627  Obj -25000 Primal inf 27843 (872)
Clp0006I 6742  Obj -25000 Primal inf 27022 (861)
Clp0006I 6845  Obj -25000 Primal inf 16878 (859)
Clp0006I 6943  Obj -25000 Primal inf 25049 (855)
Clp0006I 7028  Obj -25000 Primal inf 22587 (848)
Clp0006I 7125  Obj -25000 Primal inf 19237 (853)
Clp0006I 7224  Obj -25000 Primal inf 10328 (834)
Clp0006I 7348  Obj -25000 Primal inf 6373.9999 (828)
Clp0006I 7461  Obj -25000 Primal inf 7437.9999 (832)
Clp0006I 7570  Obj -25000 Primal inf 5742.9999 (824)
Clp0006I 7659  Obj -25000 Primal inf 5912.9999 (819)
Clp0006I 7755  Obj -25000 Primal inf 10418 (812)
Clp0006I 7841  Obj -25000 Primal inf 4449.9999 (799)
Clp0006I 7955  Obj -25000 Primal inf 5404.9999 (782)
Clp0006I 8037  Obj -25000 Primal inf 4934.9999 (772)
Clp0006I 8136  Obj -25000 Primal inf 5345.9999 (779)
Clp0006I 8234  Obj -25000 Primal inf 3205.9999 (776)
Clp0006I 8363  Obj -25000 Primal inf 4243.9999 (752)
Clp0006I 8460  Obj -25000 Primal inf 3544.9999 (725)
Clp0006I 8556  Obj -25000 Primal inf 6272.9999 (718)
Clp0006I 8645  Obj -25000 Primal inf 3447.9999 (714)
Clp0006I 8737  Obj -25000 Primal inf 3220.9999 (703)
Clp0006I 8830  Obj -25000 Primal inf 2553.9999 (698)
Clp0006I 8941  Obj -25000 Primal inf 3338.9999 (692)
Clp0006I 9065  Obj -25000 Primal inf 2464.9999 (665)
Clp0006I 9158  Obj -25000 Primal inf 3753.9999 (669)
Clp0006I 9254  Obj -25000 Primal inf 3816.9999 (656)
Clp0006I 9348  Obj -25000 Primal inf 2614.9999 (636)
Clp0006I 9472  Obj -25000 Primal inf 1214.9999 (592)
Clp0006I 9571  Obj -25000 Primal inf 1115.9999 (548)
Clp0006I 9669  Obj -25000 Primal inf 2464.9999 (534)
Clp0006I 9754  Obj -25000 Primal inf 1162.9999 (522)
Clp0006I 9871  Obj -25000 Primal inf 961.99995 (511)
Clp0006I 9966  Obj -25000 Primal inf 1227 (478)
Clp0006I 10067  Obj -25000 Primal inf 932.99995 (468)
Clp0006I 10194  Obj -25000 Primal inf 975.99996 (364)
Clp0006I 10288  Obj -25000 Primal inf 597.99997 (317)
Clp0006I 10396  Obj -25000 Primal inf 1046 (301)
Clp0006I 10499  Obj -25000 Primal inf 482.99997 (275)
Clp0006I 10636  Obj -25000 Primal inf 421.99998 (186)
Clp0006I 10735  Obj -25000 Primal inf 348.99999 (144)
Clp0006I 10850  Obj -25000 Primal inf 174.99999 (113)
Clp0006I 10953  Obj -25000 Primal inf 457.99999 (134)
Clp0006I 11039  Obj -25000 Primal inf 218.99999 (117)
Clp0006I 11139  Obj -25000 Primal inf 65.999995 (53)
Clp0006I 11249  Obj -25000 Primal inf 112 (37)
Clp0006I 11361  Obj -25000 Primal inf 212.99999 (60)
Clp0006I 11470  Obj -25000 Primal inf 142.99999 (53)
Clp0006I 11566  Obj -25000 Primal inf 23.999998 (24)
Clp0006I 11597  Obj -25000
Clp0000I Optimal - objective value -25000
Clp0000I Optimal - objective value -25000
Node 0 depth 0 unsatisfied 0 sum 0 obj -25000 guess -25000 branching on -1
Clp0000I Optimal - objective value -25000
Cbc0004I Integer solution of -25000 found after 0 iterations and 0 nodes (24.01 seconds)
Cbc0001I Search completed - best objective -25000, took 0 iterations and 0 nodes (24.10 seconds)
Cbc0035I Maximum depth 0, 0 variables fixed on reduced cost
Clp0000I Optimal - objective value -25000
Clp0000I Optimal - objective value -25000
x_264 = 1
x_871 = 1
x_1364 = 1
x_1812 = 1
x_2469 = 1
x_2578 = 1
x_3240 = 1
x_3950 = 1
x_4366 = 1
x_4771 = 1
x_5486 = 1
x_5630 = 1
x_6346 = 1
x_6684 = 1
x_7047 = 1
x_7528 = 1
x_8205 = 1
x_8805 = 1
x_9279 = 1
x_9739 = 1
x_10435 = 1
x_10876 = 1
x_11044 = 1
x_11819 = 1
x_12336 = 1
x_12752 = 1
x_13133 = 1
x_13781 = 1
x_14220 = 1
x_14829 = 1
x_15262 = 1
x_15644 = 1
x_16132 = 1
x_16794 = 1
x_17203 = 1
x_17604 = 1
x_18308 = 1
x_18500 = 1
x_19161 = 1
x_19670 = 1
x_20411 = 1
x_20770 = 1
x_21343 = 1
x_21559 = 1
x_22092 = 1
x_22704 = 1
x_23277 = 1
x_23982 = 1
x_24440 = 1
x_24508 = 1
x_25081 = 1
x_25989 = 1
x_26313 = 1
x_26887 = 1
x_27052 = 1
x_27801 = 1
x_28189 = 1
x_28960 = 1
x_29146 = 1
x_29637 = 1
x_30255 = 1
x_30719 = 1
x_31211 = 1
x_31786 = 1
x_32068 = 1
x_32746 = 1
x_33357 = 1
x_33880 = 1
x_34222 = 1
x_34674 = 1
x_35118 = 1
x_35837 = 1
x_36150 = 1
x_36738 = 1
x_37399 = 1
x_37933 = 1
x_38014 = 1
x_38767 = 1
x_39034 = 1
x_39766 = 1
x_40367 = 1
x_40672 = 1
x_41024 = 1
x_41715 = 1
x_42341 = 1
x_42804 = 1
x_43143 = 1
x_43957 = 1
x_44102 = 1
x_44768 = 1
x_45116 = 1
x_45657 = 1
x_46244 = 1
x_46696 = 1
x_47276 = 1
x_47733 = 1
x_48030 = 1
x_48502 = 1
x_49229 = 1
x_49723 = 1
x_50027 = 1
x_50676 = 1
x_51005 = 1
x_51891 = 1
x_52040 = 1
x_52589 = 1
x_53097 = 1
x_53736 = 1
x_54007 = 1
x_54567 = 1
x_55115 = 1
x_55817 = 1
x_56448 = 1
x_56838 = 1
x_57345 = 1
x_57587 = 1
x_58126 = 1
x_58816 = 1
x_59091 = 1
x_59687 = 1
x_60038 = 1
x_60531 = 1
x_61275 = 1
x_61659 = 1
x_62422 = 1
x_62721 = 1
x_63327 = 1
x_63642 = 1
x_64192 = 1
x_64823 = 1
x_65185 = 1
x_65785 = 1
x_66206 = 1
x_66754 = 1
x_67428 = 1
x_67537 = 1
x_68201 = 1
x_68623 = 1
x_69186 = 1
x_69985 = 1
x_70425 = 1
x_70914 = 1
x_71283 = 1
x_71594 = 1
x_72232 = 1
x_72579 = 1
x_73263 = 1
x_73586 = 1
x_74147 = 1
x_74758 = 1
x_75421 = 1
x_75717 = 1
x_76058 = 1
x_76750 = 1
x_77088 = 1
x_77802 = 1
x_78106 = 1
x_78753 = 1
x_79175 = 1
x_79649 = 1
x_80224 = 1
x_80920 = 1
x_81259 = 1
x_81884 = 1
x_82163 = 1
x_82799 = 1
x_83350 = 1
x_83583 = 1
x_84011 = 1
x_84600 = 1
x_85060 = 1
x_85963 = 1
x_86041 = 1
x_86625 = 1
x_87455 = 1
x_87796 = 1
x_88181 = 1
x_88728 = 1
x_89105 = 1
x_89798 = 1
x_90365 = 1
x_90694 = 1
x_91108 = 1
x_91562 = 1
x_92006 = 1
x_92782 = 1
x_93171 = 1
x_93513 = 1
x_94307 = 1
x_94662 = 1
x_95072 = 1
x_95682 = 1
x_96200 = 1
x_96680 = 1
x_97111 = 1
x_97734 = 1
x_98113 = 1
x_98645 = 1
x_99392 = 1
x_99679 = 1
x_100032 = 1
x_100614 = 1
x_101437 = 1
x_101697 = 1
x_102077 = 1
x_102848 = 1
x_103054 = 1
x_103620 = 1
x_104167 = 1
x_104576 = 1
x_105131 = 1
x_105619 = 1
x_106188 = 1
x_106595 = 1
x_107499 = 1
x_107709 = 1
x_108134 = 1
x_108678 = 1
x_109139 = 1
x_109710 = 1
x_110347 = 1
x_110584 = 1
x_111074 = 1
x_111641 = 1
x_112015 = 1
x_112621 = 1
x_113202 = 1
x_113745 = 1
x_114117 = 1
x_114660 = 1
x_115401 = 1
x_115973 = 1
x_116339 = 1
x_116859 = 1
x_117370 = 1
x_117835 = 1
x_118225 = 1
x_118683 = 1
x_119273 = 1
x_119509 = 1
x_120154 = 1
x_120590 = 1
x_121165 = 1
x_121607 = 1
x_122377 = 1
x_122906 = 1
x_123055 = 1
x_123557 = 1
x_124395 = 1
x_124504 = 1
x_125443 = 1
x_125677 = 1
x_126235 = 1
x_126795 = 1
x_127388 = 1
x_127757 = 1
x_128070 = 1
x_128510 = 1
x_129158 = 1
x_129503 = 1
x_130152 = 1
x_130712 = 1
x_131332 = 1
x_131543 = 1
x_132151 = 1
x_132869 = 1
x_133082 = 1
x_133787 = 1
x_134231 = 1
x_134743 = 1
x_135249 = 1
x_135573 = 1
x_136129 = 1
x_136792 = 1
x_137260 = 1
x_137924 = 1
x_138318 = 1
x_138695 = 1
x_139065 = 1
x_139636 = 1
x_140166 = 1
x_140840 = 1
x_141080 = 1
x_141627 = 1
x_142021 = 1
x_142716 = 1
x_143112 = 1
x_143535 = 1
x_144046 = 1
x_144854 = 1
x_145213 = 1
x_145852 = 1
x_146458 = 1
x_146929 = 1
x_147061 = 1
x_147523 = 1
x_148022 = 1
x_148737 = 1
x_149344 = 1
x_149517 = 1
x_150289 = 1
x_150622 = 1
x_151320 = 1
x_151601 = 1
x_152140 = 1
x_152628 = 1
x_153419 = 1
x_153774 = 1
x_154049 = 1
x_154653 = 1
x_155389 = 1
x_155542 = 1
x_156051 = 1
x_156533 = 1
x_157198 = 1
x_157648 = 1
x_158075 = 1
x_158539 = 1
x_159029 = 1
x_159708 = 1
x_160066 = 1
x_160964 = 1
x_161124 = 1
x_161519 = 1
x_162297 = 1
x_162793 = 1
x_163439 = 1
x_163714 = 1
x_164331 = 1
x_164548 = 1
x_165098 = 1
x_165855 = 1
x_166025 = 1
x_166727 = 1
x_167284 = 1
x_167741 = 1
x_168386 = 1
x_168501 = 1
x_169012 = 1
x_169569 = 1
x_170251 = 1
x_170564 = 1
x_171423 = 1
x_171995 = 1
x_172265 = 1
x_172638 = 1
x_173036 = 1
x_173791 = 1
x_174248 = 1
x_174815 = 1
x_175417 = 1
x_175668 = 1
x_176103 = 1
x_176585 = 1
x_177459 = 1
x_177520 = 1
x_178481 = 1
x_178967 = 1
x_179016 = 1
x_179550 = 1
x_180093 = 1
x_180896 = 1
x_181493 = 1
x_181761 = 1
x_182375 = 1
x_182861 = 1
x_183434 = 1
x_183858 = 1
x_184018 = 1
x_184898 = 1
x_185487 = 1
x_185881 = 1
x_186410 = 1
x_186656 = 1
x_187333 = 1
x_187962 = 1
x_188256 = 1
x_188912 = 1
x_189436 = 1
x_189970 = 1
x_190191 = 1
x_190905 = 1
x_191403 = 1
x_191860 = 1
x_192272 = 1
x_192599 = 1
x_193110 = 1
x_193874 = 1
x_194169 = 1
x_194826 = 1
x_195404 = 1
x_195938 = 1
x_196471 = 1
x_196747 = 1
x_197026 = 1
x_197853 = 1
x_198164 = 1
x_198806 = 1
x_199310 = 1
x_199609 = 1
x_200288 = 1
x_200718 = 1
x_201497 = 1
x_201951 = 1
x_202442 = 1
x_202926 = 1
x_203466 = 1
x_203952 = 1
x_204290 = 1
x_204883 = 1
x_205402 = 1
x_205825 = 1
x_206431 = 1
x_206868 = 1
x_207382 = 1
x_207894 = 1
x_208491 = 1
x_208553 = 1
x_209321 = 1
x_209998 = 1
x_210409 = 1
x_210980 = 1
x_211056 = 1
x_211907 = 1
x_212472 = 1
x_212897 = 1
x_213400 = 1
x_213842 = 1
x_214408 = 1
x_214932 = 1
x_215378 = 1
x_215769 = 1
x_216190 = 1
x_216822 = 1
x_217363 = 1
x_217893 = 1
x_218045 = 1
x_218730 = 1
x_219328 = 1
x_219834 = 1
x_220155 = 1
x_220975 = 1
x_221456 = 1
x_221977 = 1
x_222314 = 1
x_222984 = 1
x_223446 = 1
x_223830 = 1
x_224449 = 1
x_224707 = 1
x_225311 = 1
x_225996 = 1
x_226430 = 1
x_226571 = 1
x_227453 = 1
x_227915 = 1
x_228278 = 1
x_228965 = 1
x_229063 = 1
x_229927 = 1
x_230379 = 1
x_230944 = 1
x_231351 = 1
x_231885 = 1
x_232324 = 1
x_232954 = 1
x_233494 = 1
x_233635 = 1
x_234441 = 1
x_234726 = 1
x_235303 = 1
x_235961 = 1
x_236413 = 1
x_236693 = 1
x_237096 = 1
x_237873 = 1
x_238280 = 1
x_238862 = 1
x_239483 = 1
x_239992 = 1
x_240242 = 1
x_240872 = 1
x_241476 = 1
x_241916 = 1
x_242490 = 1
x_242699 = 1
x_243300 = 1
x_243979 = 1
x_244173 = 1
x_244856 = 1
x_245418 = 1
x_245978 = 1
x_246309 = 1
x_246988 = 1
x_247349 = 1
x_247947 = 1
x_248468 = 1
x_248974 = 1
x_249445 = 1
x_249890 = 1
real 0m25,242s user 0m25,037s sys 0m0,176s
